% demand
num_movements = 29;
loading_factor = [1400, 1700, 1700, 850, 1350, 1350, 2000, 1250, 800, 1900, 1050, 1200, 1350, 850, 950, 1350, 1850, 1950, 1000, 850, 1600, 1400, 2000, 1100, 900, 1800, 1450, 1850, 800];
pickup_time = [0, 0, 0, 0, 0, 1, 2, 2, 2, 2, 2, 5, 5, 5, 5, 8, 8, 8, 8, 8, 9, 9, 9, 9, 9, 10, 10, 10, 10];
delivery_time = [1, 1, 1, 1, 1, 2, 4, 7, 7, 4, 4, 7, 7, 7, 7, 9, 9, 9, 9, 9, 10, 10, 10, 11, 10, 11, 11, 11, 11];

% transporter definition
total_capacity = 7000;
num_decks = 3;
capacity = [3000, 1000, 3000];

% ways out of decks
num_ways_out = 1;
paths_out = array3d(decks, ways_out, decks, [
% ways out of deck d1
2, 3, 0, 

% ways out of deck d2
3, 0, 0, 

% ways out of deck d3
0, 0, 0,	

]);

